c User generated cnf file
p cnf 14 62
2 -4 11 0 
13 6 -9 0 
2 2 -3 0 
6 7 -1 0 
13 -2 3 0 
4 3 -8 0 
3 14 -11 0 
11 5 -14 0 
12 3 -8 0 
10 1 -1 0 
6 -7 13 0 
3 3 -3 0 
3 -9 4 0 
5 -6 12 0 
11 -13 14 0 
12 5 -10 0 
1 -7 4 0 
6 -11 12 0 
12 -4 3 0 
10 2 -7 0 
6 -9 6 0 
1 8 -11 0 
4 10 -11 0 
3 -12 13 0 
8 -9 3 0 
11 1 -5 0 
1 1 -10 0 
13 -11 9 0 
6 -8 7 0 
13 -1 11 0 
7 4 -6 0 
5 14 -14 0 
4 -11 1 0 
4 -4 13 0 
5 -3 11 0 
4 -2 11 0 
2 11 -6 0 
7 10 -13 0 
8 6 -3 0 
6 5 -4 0 
9 -3 5 0 
14 -14 2 0 
3 -9 10 0 
1 -12 6 0 
14 -8 10 0 
14 -3 11 0 
7 5 -10 0 
9 6 -2 0 
9 14 -8 0 
4 11 -12 0 
10 -8 4 0 
4 9 -1 0 
12 -5 4 0 
2 -12 11 0 
6 13 -7 0 
2 4 -2 0 
4 10 -8 0 
12 -11 3 0 
4 -1 3 0 
6 -10 11 0 
1 3 -8 0 
8 -8 7 0 
